result&benchmarks/Data/Ex1/verify/Output/EvenOdd03_process_dc_iter1Output/Counterexample.2.smt2
(set-info :source |printed by MathSAT|)
(declare-fun |main::mod@2| () (_ BitVec 32))
(declare-fun |isEven::n__param__@2| () (_ BitVec 32))
(declare-fun |isEven::n@2| () (_ BitVec 32))
(declare-fun |isOdd::n__param__@2| () (_ BitVec 32))
(declare-fun |isOdd::n@2| () (_ BitVec 32))
(declare-fun |isOdd::iVar1@3| () (_ BitVec 32))
(declare-fun |isOdd::__retval__@2| () (_ BitVec 32))
(declare-fun |isEven::iVar1@4| () (_ BitVec 32))
(declare-fun |isEven::__retval__@2| () (_ BitVec 32))
(declare-fun |main::iVar1@5| () (_ BitVec 32))
(declare-fun |main::iVar1@6| () (_ BitVec 32))
(assert (let ((.def_19 (= |main::mod@2| |isEven::n__param__@2|)))(let ((.def_13 ((_ extract 31 31) |main::mod@2|)))(let ((.def_14 (= .def_13 (_ bv1 1))))(let ((.def_17 (not .def_14)))(let ((.def_172 (and .def_17 .def_19)))(let ((.def_21 (= |isEven::n__param__@2| |isEven::n@2|)))(let ((.def_173 (and .def_21 .def_172)))(let ((.def_22 (= |isEven::n@2| (_ bv0 32))))(let ((.def_25 (not .def_22)))(let ((.def_174 (and .def_25 .def_173)))(let ((.def_27 (= |isEven::n@2| (_ bv1 32))))(let ((.def_30 (not .def_27)))(let ((.def_175 (and .def_30 .def_174)))(let ((.def_34 (bvadd (_ bv4294967295 32) |isEven::n@2|)))(let ((.def_36 (= .def_34 |isOdd::n__param__@2|)))(let ((.def_176 (and .def_36 .def_175)))(let ((.def_38 (= |isOdd::n__param__@2| |isOdd::n@2|)))(let ((.def_177 (and .def_38 .def_176)))(let ((.def_39 (= |isOdd::n@2| (_ bv0 32))))(let ((.def_42 (not .def_39)))(let ((.def_178 (and .def_42 .def_177)))(let ((.def_44 (= |isOdd::n@2| (_ bv1 32))))(let ((.def_179 (and .def_44 .def_178)))(let ((.def_54 (= |isOdd::iVar1@3| (_ bv1 32))))(let ((.def_180 (and .def_54 .def_179)))(let ((.def_60 (= |isOdd::iVar1@3| |isOdd::__retval__@2|)))(let ((.def_181 (and .def_60 .def_180)))(let ((.def_63 (= |isOdd::__retval__@2| |isEven::iVar1@4|)))(let ((.def_182 (and .def_63 .def_181)))(let ((.def_71 (= |isEven::iVar1@4| |isEven::__retval__@2|)))(let ((.def_183 (and .def_71 .def_182)))(let ((.def_144 (= |isEven::__retval__@2| |main::iVar1@5|)))(let ((.def_184 (and .def_144 .def_183)))(let ((.def_146 ((_ extract 31 31) |main::iVar1@5|)))(let ((.def_147 (= .def_146 (_ bv1 1))))(let ((.def_149 (not .def_147)))(let ((.def_185 (and .def_149 .def_184)))(let ((.def_82 (bvsrem |main::mod@2| (_ bv2 32))))(let ((.def_150 (= .def_82 |main::iVar1@5|)))(let ((.def_152 (not .def_150)))(let ((.def_105 (bvslt .def_82 (_ bv2 32))))(let ((.def_99 (bvslt (_ bv0 32) .def_82)))(let ((.def_100 (not .def_99)))(let ((.def_96 (bvslt .def_82 |main::mod@2|)))(let ((.def_97 (not .def_96)))(let ((.def_101 (and .def_97 .def_100)))(let ((.def_103 (or .def_17 .def_101)))(let ((.def_92 (bvslt |main::mod@2| .def_82)))(let ((.def_93 (not .def_92)))(let ((.def_88 ((_ extract 31 31) .def_82)))(let ((.def_89 (= .def_88 (_ bv1 1))))(let ((.def_90 (not .def_89)))(let ((.def_94 (and .def_90 .def_93)))(let ((.def_102 (or .def_14 .def_94)))(let ((.def_104 (and .def_102 .def_103)))(let ((.def_107 (and .def_104 .def_105)))(let ((.def_83 (bvsrem .def_82 (_ bv2 32))))(let ((.def_84 (= .def_82 .def_83)))(let ((.def_110 (and .def_84 .def_107)))(let ((.def_153 (and .def_110 .def_152)))(let ((.def_186 (and .def_153 .def_185)))(let ((.def_156 (= |main::iVar1@6| (_ bv1048576 32))))(let ((.def_187 (and .def_156 .def_186))).def_187))))))))))))))))))))))))))))))))))))))))))))))))))))))))))))))))