result&benchmarks/Data/Ex1/verify/Output/EvenOdd03_process_dc_iter1Output/Counterexample.2.txt
none:	N67 -{INIT GLOBAL VARS}-> N96
/usr/include/assert.h, lines 69-71:	N96 -{void __assert_fail(const char *__assertion, const char *__file, unsigned int __line, const char *__function);}-> N97
/usr/include/assert.h, lines 74-76:	N97 -{void __assert_perror_fail(int __errnum, const char *__file, unsigned int __line, const char *__function);}-> N98
/usr/include/assert.h, lines 81-82:	N98 -{void __assert(const char *__assertion, const char *__file, int __line);}-> N99
/usr/lib/gcc/x86_64-linux-gnu/11/include/stddef.h, line 209:	N99 -{typedef unsigned long int size_t;}-> N100
/usr/lib/gcc/x86_64-linux-gnu/11/include/stddef.h, line 321:	N100 -{typedef int wchar_t;}-> N101
/usr/include/stdlib.h, lines 59-63:	N101 -{struct __anon_type_div_t {   int quot;   int rem; } ;}-> N102
/usr/include/stdlib.h, lines 59-63:	N102 -{typedef struct __anon_type_div_t div_t;}-> N103
/usr/include/stdlib.h, lines 67-71:	N103 -{struct __anon_type_ldiv_t {   long int quot;   long int rem; } ;}-> N104
/usr/include/stdlib.h, lines 67-71:	N104 -{typedef struct __anon_type_ldiv_t ldiv_t;}-> N105
/usr/include/stdlib.h, lines 77-81:	N105 -{struct __anon_type_lldiv_t {   long long int quot;   long long int rem; } ;}-> N106
/usr/include/stdlib.h, lines 77-81:	N106 -{typedef struct __anon_type_lldiv_t lldiv_t;}-> N107
/usr/include/stdlib.h, line 98:	N107 -{size_t __ctype_get_mb_cur_max();}-> N108
/usr/include/stdlib.h, lines 102-103:	N108 -{double atof(const char *__nptr);}-> N109
/usr/include/stdlib.h, lines 105-106:	N109 -{int atoi(const char *__nptr);}-> N110
/usr/include/stdlib.h, lines 108-109:	N110 -{long int atol(const char *__nptr);}-> N111
/usr/include/stdlib.h, lines 113-114:	N111 -{long long int atoll(const char *__nptr);}-> N112
/usr/include/stdlib.h, lines 118-120:	N112 -{double strtod(const char *__nptr, char **__endptr);}-> N113
/usr/include/stdlib.h, lines 124-125:	N113 -{float strtof(const char *__nptr, char **__endptr);}-> N114
/usr/include/stdlib.h, lines 127-129:	N114 -{long double strtold(const char *__nptr, char **__endptr);}-> N115
/usr/include/stdlib.h, lines 177-179:	N115 -{long int strtol(const char *__nptr, char **__endptr, int __base);}-> N116
/usr/include/stdlib.h, lines 181-183:	N116 -{unsigned long int strtoul(const char *__nptr, char **__endptr, int __base);}-> N117
/usr/include/stdlib.h, lines 188-190:	N117 -{long long int strtoq(const char *__nptr, char **__endptr, int __base);}-> N118
/usr/include/stdlib.h, lines 193-195:	N118 -{unsigned long long int strtouq(const char *__nptr, char **__endptr, int __base);}-> N119
/usr/include/stdlib.h, lines 201-203:	N119 -{long long int strtoll(const char *__nptr, char **__endptr, int __base);}-> N120
/usr/include/stdlib.h, lines 206-208:	N120 -{unsigned long long int strtoull(const char *__nptr, char **__endptr, int __base);}-> N121
/usr/include/stdlib.h, line 386:	N121 -{char *l64a(long int __n);}-> N122
/usr/include/stdlib.h, lines 389-390:	N122 -{long int a64l(const char *__s);}-> N123
/usr/include/x86_64-linux-gnu/bits/types.h, line 31:	N123 -{typedef unsigned char __u_char;}-> N124
/usr/include/x86_64-linux-gnu/bits/types.h, line 32:	N124 -{typedef unsigned short int __u_short;}-> N125
/usr/include/x86_64-linux-gnu/bits/types.h, line 33:	N125 -{typedef unsigned int __u_int;}-> N126
/usr/include/x86_64-linux-gnu/bits/types.h, line 34:	N126 -{typedef unsigned long int __u_long;}-> N127
/usr/include/x86_64-linux-gnu/bits/types.h, line 37:	N127 -{typedef signed char __int8_t;}-> N128
/usr/include/x86_64-linux-gnu/bits/types.h, line 38:	N128 -{typedef unsigned char __uint8_t;}-> N129
/usr/include/x86_64-linux-gnu/bits/types.h, line 39:	N129 -{typedef signed short int __int16_t;}-> N130
/usr/include/x86_64-linux-gnu/bits/types.h, line 40:	N130 -{typedef unsigned short int __uint16_t;}-> N131
/usr/include/x86_64-linux-gnu/bits/types.h, line 41:	N131 -{typedef signed int __int32_t;}-> N132
/usr/include/x86_64-linux-gnu/bits/types.h, line 42:	N132 -{typedef unsigned int __uint32_t;}-> N133
/usr/include/x86_64-linux-gnu/bits/types.h, line 44:	N133 -{typedef signed long int __int64_t;}-> N134
/usr/include/x86_64-linux-gnu/bits/types.h, line 45:	N134 -{typedef unsigned long int __uint64_t;}-> N135
/usr/include/x86_64-linux-gnu/bits/types.h, line 52:	N135 -{typedef __int8_t __int_least8_t;}-> N136
/usr/include/x86_64-linux-gnu/bits/types.h, line 53:	N136 -{typedef __uint8_t __uint_least8_t;}-> N137
/usr/include/x86_64-linux-gnu/bits/types.h, line 54:	N137 -{typedef __int16_t __int_least16_t;}-> N138
/usr/include/x86_64-linux-gnu/bits/types.h, line 55:	N138 -{typedef __uint16_t __uint_least16_t;}-> N139
/usr/include/x86_64-linux-gnu/bits/types.h, line 56:	N139 -{typedef __int32_t __int_least32_t;}-> N140
/usr/include/x86_64-linux-gnu/bits/types.h, line 57:	N140 -{typedef __uint32_t __uint_least32_t;}-> N141
/usr/include/x86_64-linux-gnu/bits/types.h, line 58:	N141 -{typedef __int64_t __int_least64_t;}-> N142
/usr/include/x86_64-linux-gnu/bits/types.h, line 59:	N142 -{typedef __uint64_t __uint_least64_t;}-> N143
/usr/include/x86_64-linux-gnu/bits/types.h, line 63:	N143 -{typedef long int __quad_t;}-> N144
/usr/include/x86_64-linux-gnu/bits/types.h, line 64:	N144 -{typedef unsigned long int __u_quad_t;}-> N145
/usr/include/x86_64-linux-gnu/bits/types.h, line 72:	N145 -{typedef long int __intmax_t;}-> N146
/usr/include/x86_64-linux-gnu/bits/types.h, line 73:	N146 -{typedef unsigned long int __uintmax_t;}-> N147
/usr/include/x86_64-linux-gnu/bits/types.h, line 145:	N147 -{typedef unsigned long int __dev_t;}-> N148
/usr/include/x86_64-linux-gnu/bits/types.h, line 146:	N148 -{typedef unsigned int __uid_t;}-> N149
/usr/include/x86_64-linux-gnu/bits/types.h, line 147:	N149 -{typedef unsigned int __gid_t;}-> N150
/usr/include/x86_64-linux-gnu/bits/types.h, line 148:	N150 -{typedef unsigned long int __ino_t;}-> N151
/usr/include/x86_64-linux-gnu/bits/types.h, line 149:	N151 -{typedef unsigned long int __ino64_t;}-> N152
/usr/include/x86_64-linux-gnu/bits/types.h, line 150:	N152 -{typedef unsigned int __mode_t;}-> N153
/usr/include/x86_64-linux-gnu/bits/types.h, line 151:	N153 -{typedef unsigned long int __nlink_t;}-> N154
/usr/include/x86_64-linux-gnu/bits/types.h, line 152:	N154 -{typedef long int __off_t;}-> N155
/usr/include/x86_64-linux-gnu/bits/types.h, line 153:	N155 -{typedef long int __off64_t;}-> N156
/usr/include/x86_64-linux-gnu/bits/types.h, line 154:	N156 -{typedef int __pid_t;}-> N157
/usr/include/x86_64-linux-gnu/bits/types.h, line 155:	N157 -{struct __anon_type___fsid_t {   int __val[2]; } ;}-> N158
/usr/include/x86_64-linux-gnu/bits/types.h, line 155:	N158 -{typedef struct __anon_type___fsid_t __fsid_t;}-> N159
/usr/include/x86_64-linux-gnu/bits/types.h, line 156:	N159 -{typedef long int __clock_t;}-> N160
/usr/include/x86_64-linux-gnu/bits/types.h, line 157:	N160 -{typedef unsigned long int __rlim_t;}-> N161
/usr/include/x86_64-linux-gnu/bits/types.h, line 158:	N161 -{typedef unsigned long int __rlim64_t;}-> N162
/usr/include/x86_64-linux-gnu/bits/types.h, line 159:	N162 -{typedef unsigned int __id_t;}-> N163
/usr/include/x86_64-linux-gnu/bits/types.h, line 160:	N163 -{typedef long int __time_t;}-> N164
/usr/include/x86_64-linux-gnu/bits/types.h, line 161:	N164 -{typedef unsigned int __useconds_t;}-> N165
/usr/include/x86_64-linux-gnu/bits/types.h, line 162:	N165 -{typedef long int __suseconds_t;}-> N166
/usr/include/x86_64-linux-gnu/bits/types.h, line 163:	N166 -{typedef long int __suseconds64_t;}-> N167
/usr/include/x86_64-linux-gnu/bits/types.h, line 165:	N167 -{typedef int __daddr_t;}-> N168
/usr/include/x86_64-linux-gnu/bits/types.h, line 166:	N168 -{typedef int __key_t;}-> N169
/usr/include/x86_64-linux-gnu/bits/types.h, line 169:	N169 -{typedef int __clockid_t;}-> N170
/usr/include/x86_64-linux-gnu/bits/types.h, line 172:	N170 -{typedef void *__timer_t;}-> N171
/usr/include/x86_64-linux-gnu/bits/types.h, line 175:	N171 -{typedef long int __blksize_t;}-> N172
/usr/include/x86_64-linux-gnu/bits/types.h, line 180:	N172 -{typedef long int __blkcnt_t;}-> N173
/usr/include/x86_64-linux-gnu/bits/types.h, line 181:	N173 -{typedef long int __blkcnt64_t;}-> N174
/usr/include/x86_64-linux-gnu/bits/types.h, line 184:	N174 -{typedef unsigned long int __fsblkcnt_t;}-> N175
/usr/include/x86_64-linux-gnu/bits/types.h, line 185:	N175 -{typedef unsigned long int __fsblkcnt64_t;}-> N176
/usr/include/x86_64-linux-gnu/bits/types.h, line 188:	N176 -{typedef unsigned long int __fsfilcnt_t;}-> N177
/usr/include/x86_64-linux-gnu/bits/types.h, line 189:	N177 -{typedef unsigned long int __fsfilcnt64_t;}-> N178
/usr/include/x86_64-linux-gnu/bits/types.h, line 192:	N178 -{typedef long int __fsword_t;}-> N179
/usr/include/x86_64-linux-gnu/bits/types.h, line 194:	N179 -{typedef long int __ssize_t;}-> N180
/usr/include/x86_64-linux-gnu/bits/types.h, line 197:	N180 -{typedef long int __syscall_slong_t;}-> N181
/usr/include/x86_64-linux-gnu/bits/types.h, line 199:	N181 -{typedef unsigned long int __syscall_ulong_t;}-> N182
/usr/include/x86_64-linux-gnu/bits/types.h, line 203:	N182 -{typedef __off64_t __loff_t;}-> N183
/usr/include/x86_64-linux-gnu/bits/types.h, line 204:	N183 -{typedef char *__caddr_t;}-> N184
/usr/include/x86_64-linux-gnu/bits/types.h, line 207:	N184 -{typedef long int __intptr_t;}-> N185
/usr/include/x86_64-linux-gnu/bits/types.h, line 210:	N185 -{typedef unsigned int __socklen_t;}-> N186
/usr/include/x86_64-linux-gnu/bits/types.h, line 215:	N186 -{typedef int __sig_atomic_t;}-> N187
/usr/include/x86_64-linux-gnu/sys/types.h, line 33:	N187 -{typedef __u_char u_char;}-> N188
/usr/include/x86_64-linux-gnu/sys/types.h, line 34:	N188 -{typedef __u_short u_short;}-> N189
/usr/include/x86_64-linux-gnu/sys/types.h, line 35:	N189 -{typedef __u_int u_int;}-> N190
/usr/include/x86_64-linux-gnu/sys/types.h, line 36:	N190 -{typedef __u_long u_long;}-> N191
/usr/include/x86_64-linux-gnu/sys/types.h, line 37:	N191 -{typedef __quad_t quad_t;}-> N192
/usr/include/x86_64-linux-gnu/sys/types.h, line 38:	N192 -{typedef __u_quad_t u_quad_t;}-> N193
/usr/include/x86_64-linux-gnu/sys/types.h, line 39:	N193 -{typedef __fsid_t fsid_t;}-> N194
/usr/include/x86_64-linux-gnu/sys/types.h, line 42:	N194 -{typedef __loff_t loff_t;}-> N195
/usr/include/x86_64-linux-gnu/sys/types.h, line 47:	N195 -{typedef __ino_t ino_t;}-> N196
/usr/include/x86_64-linux-gnu/sys/types.h, line 59:	N196 -{typedef __dev_t dev_t;}-> N197
/usr/include/x86_64-linux-gnu/sys/types.h, line 64:	N197 -{typedef __gid_t gid_t;}-> N198
/usr/include/x86_64-linux-gnu/sys/types.h, line 69:	N198 -{typedef __mode_t mode_t;}-> N199
/usr/include/x86_64-linux-gnu/sys/types.h, line 74:	N199 -{typedef __nlink_t nlink_t;}-> N200
/usr/include/x86_64-linux-gnu/sys/types.h, line 79:	N200 -{typedef __uid_t uid_t;}-> N201
/usr/include/x86_64-linux-gnu/sys/types.h, line 85:	N201 -{typedef __off_t off_t;}-> N202
/usr/include/x86_64-linux-gnu/sys/types.h, line 97:	N202 -{typedef __pid_t pid_t;}-> N203
/usr/include/x86_64-linux-gnu/sys/types.h, line 103:	N203 -{typedef __id_t id_t;}-> N204
/usr/include/x86_64-linux-gnu/sys/types.h, line 108:	N204 -{typedef __ssize_t ssize_t;}-> N205
/usr/include/x86_64-linux-gnu/sys/types.h, line 114:	N205 -{typedef __daddr_t daddr_t;}-> N206
/usr/include/x86_64-linux-gnu/sys/types.h, line 115:	N206 -{typedef __caddr_t caddr_t;}-> N207
/usr/include/x86_64-linux-gnu/sys/types.h, line 121:	N207 -{typedef __key_t key_t;}-> N208
/usr/include/x86_64-linux-gnu/bits/types/clock_t.h, line 7:	N208 -{typedef __clock_t clock_t;}-> N209
/usr/include/x86_64-linux-gnu/bits/types/clockid_t.h, line 7:	N209 -{typedef __clockid_t clockid_t;}-> N210
/usr/include/x86_64-linux-gnu/bits/types/time_t.h, line 10:	N210 -{typedef __time_t time_t;}-> N211
/usr/include/x86_64-linux-gnu/bits/types/timer_t.h, line 7:	N211 -{typedef __timer_t timer_t;}-> N212
/usr/include/x86_64-linux-gnu/sys/types.h, line 148:	N212 -{typedef unsigned long int ulong;}-> N213
/usr/include/x86_64-linux-gnu/sys/types.h, line 149:	N213 -{typedef unsigned short int ushort;}-> N214
/usr/include/x86_64-linux-gnu/sys/types.h, line 150:	N214 -{typedef unsigned int uint;}-> N215
/usr/include/x86_64-linux-gnu/bits/stdint-intn.h, line 24:	N215 -{typedef __int8_t int8_t;}-> N216
/usr/include/x86_64-linux-gnu/bits/stdint-intn.h, line 25:	N216 -{typedef __int16_t int16_t;}-> N217
/usr/include/x86_64-linux-gnu/bits/stdint-intn.h, line 26:	N217 -{typedef __int32_t int32_t;}-> N218
/usr/include/x86_64-linux-gnu/bits/stdint-intn.h, line 27:	N218 -{typedef __int64_t int64_t;}-> N219
/usr/include/x86_64-linux-gnu/sys/types.h, line 158:	N219 -{typedef __uint8_t u_int8_t;}-> N220
/usr/include/x86_64-linux-gnu/sys/types.h, line 159:	N220 -{typedef __uint16_t u_int16_t;}-> N221
/usr/include/x86_64-linux-gnu/sys/types.h, line 160:	N221 -{typedef __uint32_t u_int32_t;}-> N222
/usr/include/x86_64-linux-gnu/sys/types.h, line 161:	N222 -{typedef __uint64_t u_int64_t;}-> N223
/usr/include/x86_64-linux-gnu/sys/types.h, line 164:	N223 -{typedef signed int register_t;}-> N224
/usr/include/x86_64-linux-gnu/bits/byteswap.h, lines 33-41:	N224 -{__uint16_t __bswap_16(__uint16_t __bsx);}-> N225
/usr/include/x86_64-linux-gnu/bits/byteswap.h, lines 48-56:	N225 -{__uint32_t __bswap_32(__uint32_t __bsx);}-> N226
/usr/include/x86_64-linux-gnu/bits/byteswap.h, lines 69-77:	N226 -{__uint64_t __bswap_64(__uint64_t __bsx);}-> N227
/usr/include/x86_64-linux-gnu/bits/uintn-identity.h, lines 32-36:	N227 -{__uint16_t __uint16_identity(__uint16_t __x);}-> N228
/usr/include/x86_64-linux-gnu/bits/uintn-identity.h, lines 38-42:	N228 -{__uint32_t __uint32_identity(__uint32_t __x);}-> N229
/usr/include/x86_64-linux-gnu/bits/uintn-identity.h, lines 44-48:	N229 -{__uint64_t __uint64_identity(__uint64_t __x);}-> N230
/usr/include/x86_64-linux-gnu/bits/types/__sigset_t.h, lines 5-8:	N230 -{struct __anon_type___sigset_t {   unsigned long int __val[32UL]; } ;}-> N231
/usr/include/x86_64-linux-gnu/bits/types/__sigset_t.h, lines 5-8:	N231 -{typedef struct __anon_type___sigset_t __sigset_t;}-> N232
/usr/include/x86_64-linux-gnu/bits/types/sigset_t.h, line 7:	N232 -{typedef __sigset_t sigset_t;}-> N233
/usr/include/x86_64-linux-gnu/bits/types/struct_timeval.h, lines 8-17:	N233 -{struct timeval {   __time_t tv_sec;   __suseconds_t tv_usec; } ;}-> N234
/usr/include/x86_64-linux-gnu/bits/types/struct_timespec.h, lines 11-31:	N234 -{struct timespec {   __time_t tv_sec;   __syscall_slong_t tv_nsec; } ;}-> N235
/usr/include/x86_64-linux-gnu/sys/select.h, line 43:	N235 -{typedef __suseconds_t suseconds_t;}-> N236
/usr/include/x86_64-linux-gnu/sys/select.h, line 49:	N236 -{typedef long int __fd_mask;}-> N237
/usr/include/x86_64-linux-gnu/sys/select.h, lines 59-70:	N237 -{struct __anon_type_fd_set {   __fd_mask __fds_bits[32]; } ;}-> N238
/usr/include/x86_64-linux-gnu/sys/select.h, lines 59-70:	N238 -{typedef struct __anon_type_fd_set fd_set;}-> N239
/usr/include/x86_64-linux-gnu/sys/select.h, line 77:	N239 -{typedef __fd_mask fd_mask;}-> N240
/usr/include/x86_64-linux-gnu/sys/select.h, lines 102-105:	N240 -{int select(int __nfds, fd_set *__readfds, fd_set *__writefds, fd_set *__exceptfds, struct timeval *__timeout);}-> N241
/usr/include/x86_64-linux-gnu/sys/select.h, lines 127-131:	N241 -{int pselect(int __nfds, fd_set *__readfds, fd_set *__writefds, fd_set *__exceptfds, const struct timespec *__timeout, const __sigset_t *__sigmask);}-> N242
/usr/include/x86_64-linux-gnu/sys/types.h, line 185:	N242 -{typedef __blksize_t blksize_t;}-> N243
/usr/include/x86_64-linux-gnu/sys/types.h, line 192:	N243 -{typedef __blkcnt_t blkcnt_t;}-> N244
/usr/include/x86_64-linux-gnu/sys/types.h, line 196:	N244 -{typedef __fsblkcnt_t fsblkcnt_t;}-> N245
/usr/include/x86_64-linux-gnu/sys/types.h, line 200:	N245 -{typedef __fsfilcnt_t fsfilcnt_t;}-> N246
/usr/include/x86_64-linux-gnu/bits/atomic_wide_counter.h, lines 28-32:	N246 -{struct __anon_type_0 {   unsigned int __low;   unsigned int __high; } ;}-> N247
/usr/include/x86_64-linux-gnu/bits/atomic_wide_counter.h, lines 25-33:	N247 -{union __anon_type___atomic_wide_counter {   unsigned long long int __value64;   struct __anon_type_0 __value32; } ;}-> N248
/usr/include/x86_64-linux-gnu/bits/atomic_wide_counter.h, lines 25-33:	N248 -{typedef union __anon_type___atomic_wide_counter __atomic_wide_counter;}-> N249
/usr/include/x86_64-linux-gnu/bits/thread-shared-types.h, lines 51-55:	N249 -{struct __pthread_internal_list {   struct __pthread_internal_list *__prev;   struct __pthread_internal_list *__next; } ;}-> N250
/usr/include/x86_64-linux-gnu/bits/thread-shared-types.h, lines 51-55:	N250 -{typedef struct __pthread_internal_list __pthread_list_t;}-> N251
/usr/include/x86_64-linux-gnu/bits/thread-shared-types.h, lines 57-60:	N251 -{struct __pthread_internal_slist {   struct __pthread_internal_slist *__next; } ;}-> N252
/usr/include/x86_64-linux-gnu/bits/thread-shared-types.h, lines 57-60:	N252 -{typedef struct __pthread_internal_slist __pthread_slist_t;}-> N253
/usr/include/x86_64-linux-gnu/bits/struct_mutex.h, lines 22-53:	N253 -{struct __pthread_mutex_s {   int __lock;   unsigned int __count;   int __owner;   unsigned int __nusers;   int __kind;   short __spins;   short __elision;   __pthread_list_t __list; } ;}-> N254
/usr/include/x86_64-linux-gnu/bits/struct_rwlock.h, lines 23-55:	N254 -{struct __pthread_rwlock_arch_t {   unsigned int __readers;   unsigned int __writers;   unsigned int __wrphase_futex;   unsigned int __writers_futex;   unsigned int __pad3;   unsigned int __pad4;   int __cur_writer;   int __shared;   signed char __rwelision;   unsigned char __pad1[7];   unsigned long int __pad2;   unsigned int __flags; } ;}-> N255
/usr/include/x86_64-linux-gnu/bits/thread-shared-types.h, lines 94-103:	N255 -{struct __pthread_cond_s {   __atomic_wide_counter __wseq;   __atomic_wide_counter __g1_start;   unsigned int __g_refs[2];   unsigned int __g_size[2];   unsigned int __g1_orig_size;   unsigned int __wrefs;   unsigned int __g_signals[2]; } ;}-> N256
/usr/include/x86_64-linux-gnu/bits/thread-shared-types.h, line 105:	N256 -{typedef unsigned int __tss_t;}-> N257
/usr/include/x86_64-linux-gnu/bits/thread-shared-types.h, line 106:	N257 -{typedef unsigned long int __thrd_t;}-> N258
/usr/include/x86_64-linux-gnu/bits/thread-shared-types.h, lines 108-111:	N258 -{struct __anon_type___once_flag {   int __data; } ;}-> N259
/usr/include/x86_64-linux-gnu/bits/thread-shared-types.h, lines 108-111:	N259 -{typedef struct __anon_type___once_flag __once_flag;}-> N260
/usr/include/x86_64-linux-gnu/bits/pthreadtypes.h, line 27:	N260 -{typedef unsigned long int pthread_t;}-> N261
/usr/include/x86_64-linux-gnu/bits/pthreadtypes.h, lines 32-36:	N261 -{union __anon_type_pthread_mutexattr_t {   char __size[4];   int __align; } ;}-> N262
/usr/include/x86_64-linux-gnu/bits/pthreadtypes.h, lines 32-36:	N262 -{typedef union __anon_type_pthread_mutexattr_t pthread_mutexattr_t;}-> N263
/usr/include/x86_64-linux-gnu/bits/pthreadtypes.h, lines 41-45:	N263 -{union __anon_type_pthread_condattr_t {   char __size[4];   int __align; } ;}-> N264
/usr/include/x86_64-linux-gnu/bits/pthreadtypes.h, lines 41-45:	N264 -{typedef union __anon_type_pthread_mutexattr_t pthread_condattr_t;}-> N265
/usr/include/x86_64-linux-gnu/bits/pthreadtypes.h, line 49:	N265 -{typedef unsigned int pthread_key_t;}-> N266
/usr/include/x86_64-linux-gnu/bits/pthreadtypes.h, line 53:	N266 -{typedef int pthread_once_t;}-> N267
/usr/include/x86_64-linux-gnu/bits/pthreadtypes.h, lines 56-60:	N267 -{union pthread_attr_t {   char __size[56];   long int __align; } ;}-> N268
/usr/include/x86_64-linux-gnu/bits/pthreadtypes.h, line 62:	N268 -{typedef union pthread_attr_t pthread_attr_t;}-> N269
/usr/include/x86_64-linux-gnu/bits/pthreadtypes.h, lines 67-72:	N269 -{union __anon_type_pthread_mutex_t {   struct __pthread_mutex_s __data;   char __size[40];   long int __align; } ;}-> N270
/usr/include/x86_64-linux-gnu/bits/pthreadtypes.h, lines 67-72:	N270 -{typedef union __anon_type_pthread_mutex_t pthread_mutex_t;}-> N271
/usr/include/x86_64-linux-gnu/bits/pthreadtypes.h, lines 75-80:	N271 -{union __anon_type_pthread_cond_t {   struct __pthread_cond_s __data;   char __size[48];   long long int __align; } ;}-> N272
/usr/include/x86_64-linux-gnu/bits/pthreadtypes.h, lines 75-80:	N272 -{typedef union __anon_type_pthread_cond_t pthread_cond_t;}-> N273
/usr/include/x86_64-linux-gnu/bits/pthreadtypes.h, lines 86-91:	N273 -{union __anon_type_pthread_rwlock_t {   struct __pthread_rwlock_arch_t __data;   char __size[56];   long int __align; } ;}-> N274
/usr/include/x86_64-linux-gnu/bits/pthreadtypes.h, lines 86-91:	N274 -{typedef union __anon_type_pthread_rwlock_t pthread_rwlock_t;}-> N275
/usr/include/x86_64-linux-gnu/bits/pthreadtypes.h, lines 93-97:	N275 -{union __anon_type_pthread_rwlockattr_t {   char __size[8];   long int __align; } ;}-> N276
/usr/include/x86_64-linux-gnu/bits/pthreadtypes.h, lines 93-97:	N276 -{typedef union __anon_type_pthread_rwlockattr_t pthread_rwlockattr_t;}-> N277
/usr/include/x86_64-linux-gnu/bits/pthreadtypes.h, line 103:	N277 -{typedef volatile int pthread_spinlock_t;}-> N278
/usr/include/x86_64-linux-gnu/bits/pthreadtypes.h, lines 108-112:	N278 -{union __anon_type_pthread_barrier_t {   char __size[32];   long int __align; } ;}-> N279
/usr/include/x86_64-linux-gnu/bits/pthreadtypes.h, lines 108-112:	N279 -{typedef union __anon_type_pthread_barrier_t pthread_barrier_t;}-> N280
/usr/include/x86_64-linux-gnu/bits/pthreadtypes.h, lines 114-118:	N280 -{union __anon_type_pthread_barrierattr_t {   char __size[4];   int __align; } ;}-> N281
/usr/include/x86_64-linux-gnu/bits/pthreadtypes.h, lines 114-118:	N281 -{typedef union __anon_type_pthread_mutexattr_t pthread_barrierattr_t;}-> N282
/usr/include/stdlib.h, line 402:	N282 -{long int random();}-> N283
/usr/include/stdlib.h, line 405:	N283 -{void srandom(unsigned int __seed);}-> N284
/usr/include/stdlib.h, lines 411-412:	N284 -{char *initstate(unsigned int __seed, char *__statebuf, size_t __statelen);}-> N285
/usr/include/stdlib.h, line 416:	N285 -{char *setstate(char *__statebuf);}-> N286
/usr/include/stdlib.h, lines 424-433:	N286 -{struct random_data {   int32_t *fptr;   int32_t *rptr;   int32_t *state;   int rand_type;   int rand_deg;   int rand_sep;   int32_t *end_ptr; } ;}-> N287
/usr/include/stdlib.h, lines 435-436:	N287 -{int random_r(struct random_data *__buf, int32_t *__result);}-> N288
/usr/include/stdlib.h, lines 438-439:	N288 -{int srandom_r(unsigned int __seed, struct random_data *__buf);}-> N289
/usr/include/stdlib.h, lines 441-444:	N289 -{int initstate_r(unsigned int __seed, char *__statebuf, size_t __statelen, struct random_data *__buf);}-> N290
/usr/include/stdlib.h, lines 446-448:	N290 -{int setstate_r(char *__statebuf, struct random_data *__buf);}-> N291
/usr/include/stdlib.h, line 454:	N291 -{int rand();}-> N292
/usr/include/stdlib.h, line 456:	N292 -{void srand(unsigned int __seed);}-> N293
/usr/include/stdlib.h, line 460:	N293 -{int rand_r(unsigned int *__seed);}-> N294
/usr/include/stdlib.h, line 468:	N294 -{double drand48();}-> N295
/usr/include/stdlib.h, line 469:	N295 -{double erand48(unsigned short int __xsubi[3]);}-> N296
/usr/include/stdlib.h, line 472:	N296 -{long int lrand48();}-> N297
/usr/include/stdlib.h, lines 473-474:	N297 -{long int nrand48(unsigned short int __xsubi[3]);}-> N298
/usr/include/stdlib.h, line 477:	N298 -{long int mrand48();}-> N299
/usr/include/stdlib.h, lines 478-479:	N299 -{long int jrand48(unsigned short int __xsubi[3]);}-> N300
/usr/include/stdlib.h, line 482:	N300 -{void srand48(long int __seedval);}-> N301
/usr/include/stdlib.h, lines 483-484:	N301 -{unsigned short int *seed48(unsigned short int __seed16v[3]);}-> N302
/usr/include/stdlib.h, line 485:	N302 -{void lcong48(unsigned short int __param[7]);}-> N303
/usr/include/stdlib.h, lines 491-499:	N303 -{struct drand48_data {   unsigned short int __x[3];   unsigned short int __old_x[3];   unsigned short int __c;   unsigned short int __init;   unsigned long long int __a; } ;}-> N304
/usr/include/stdlib.h, lines 502-503:	N304 -{int drand48_r(struct drand48_data *__buffer, double *__result);}-> N305
/usr/include/stdlib.h, lines 504-506:	N305 -{int erand48_r(unsigned short int __xsubi[3], struct drand48_data *__buffer, double *__result);}-> N306
/usr/include/stdlib.h, lines 509-511:	N306 -{int lrand48_r(struct drand48_data *__buffer, long int *__result);}-> N307
/usr/include/stdlib.h, lines 512-515:	N307 -{int nrand48_r(unsigned short int __xsubi[3], struct drand48_data *__buffer, long int *__result);}-> N308
/usr/include/stdlib.h, lines 518-520:	N308 -{int mrand48_r(struct drand48_data *__buffer, long int *__result);}-> N309
/usr/include/stdlib.h, lines 521-524:	N309 -{int jrand48_r(unsigned short int __xsubi[3], struct drand48_data *__buffer, long int *__result);}-> N310
/usr/include/stdlib.h, lines 527-528:	N310 -{int srand48_r(long int __seedval, struct drand48_data *__buffer);}-> N311
/usr/include/stdlib.h, lines 530-531:	N311 -{int seed48_r(unsigned short int __seed16v[3], struct drand48_data *__buffer);}-> N312
/usr/include/stdlib.h, lines 533-535:	N312 -{int lcong48_r(unsigned short int __param[7], struct drand48_data *__buffer);}-> N313
/usr/include/stdlib.h, lines 540-541:	N313 -{void *malloc(size_t __size);}-> N314
/usr/include/stdlib.h, lines 543-544:	N314 -{void *calloc(size_t __nmemb, size_t __size);}-> N315
/usr/include/stdlib.h, lines 551-552:	N315 -{void *realloc(void *__ptr, size_t __size);}-> N316
/usr/include/stdlib.h, line 555:	N316 -{void free(void *__ptr);}-> N317
/usr/include/stdlib.h, lines 563-566:	N317 -{void *reallocarray(void *__ptr, size_t __nmemb, size_t __size);}-> N318
/usr/include/alloca.h, line 32:	N318 -{void *alloca(size_t __size);}-> N319
/usr/include/stdlib.h, lines 580-581:	N319 -{void *valloc(size_t __size);}-> N320
/usr/include/stdlib.h, lines 586-587:	N320 -{int posix_memalign(void **__memptr, size_t __alignment, size_t __size);}-> N321
/usr/include/stdlib.h, lines 592-594:	N321 -{void *aligned_alloc(size_t __alignment, size_t __size);}-> N322
/usr/include/stdlib.h, line 598:	N322 -{void abort();}-> N323
/usr/include/stdlib.h, line 602:	N323 -{int atexit(void (*__func)());}-> N324
/usr/include/stdlib.h, line 610:	N324 -{int at_quick_exit(void (*__func)());}-> N325
/usr/include/stdlib.h, lines 617-618:	N325 -{int on_exit(void (*__func)(int __status, void *__arg), void *__arg);}-> N326
/usr/include/stdlib.h, line 624:	N326 -{void exit(int __status);}-> N327
/usr/include/stdlib.h, line 630:	N327 -{void quick_exit(int __status);}-> N328
/usr/include/stdlib.h, line 636:	N328 -{void _Exit(int __status);}-> N329
/usr/include/stdlib.h, line 641:	N329 -{char *getenv(const char *__name);}-> N330
/usr/include/stdlib.h, line 654:	N330 -{int putenv(char *__string);}-> N331
/usr/include/stdlib.h, lines 660-661:	N331 -{int setenv(const char *__name, const char *__value, int __replace);}-> N332
/usr/include/stdlib.h, line 664:	N332 -{int unsetenv(const char *__name);}-> N333
/usr/include/stdlib.h, line 671:	N333 -{int clearenv();}-> N334
/usr/include/stdlib.h, line 682:	N334 -{char *mktemp(char *__template);}-> N335
/usr/include/stdlib.h, line 695:	N335 -{int mkstemp(char *__template);}-> N336
/usr/include/stdlib.h, line 717:	N336 -{int mkstemps(char *__template, int __suffixlen);}-> N337
/usr/include/stdlib.h, line 738:	N337 -{char *mkdtemp(char *__template);}-> N338
/usr/include/stdlib.h, line 791:	N338 -{int system(const char *__command);}-> N339
/usr/include/stdlib.h, lines 808-809:	N339 -{char *realpath(const char *__name, char *__resolved);}-> N340
/usr/include/stdlib.h, line 816:	N340 -{typedef int (*__compar_fn_t)(const void *, const void *);}-> N341
/usr/include/stdlib.h, lines 828-830:	N341 -{void *bsearch(const void *__key, const void *__base, size_t __nmemb, size_t __size, __compar_fn_t __compar);}-> N342
/usr/include/stdlib.h, lines 838-839:	N342 -{void qsort(void *__base, size_t __nmemb, size_t __size, __compar_fn_t __compar);}-> N343
/usr/include/stdlib.h, line 848:	N343 -{int abs(int __x);}-> N344
/usr/include/stdlib.h, line 849:	N344 -{long int labs(long int __x);}-> N345
/usr/include/stdlib.h, lines 852-853:	N345 -{long long int llabs(long long int __x);}-> N346
/usr/include/stdlib.h, lines 860-861:	N346 -{div_t div(int __numer, int __denom);}-> N347
/usr/include/stdlib.h, lines 862-863:	N347 -{ldiv_t ldiv(long int __numer, long int __denom);}-> N348
/usr/include/stdlib.h, lines 866-868:	N348 -{lldiv_t lldiv(long long int __numer, long long int __denom);}-> N349
/usr/include/stdlib.h, lines 880-881:	N349 -{char *ecvt(double __value, int __ndigit, int *__decpt, int *__sign);}-> N350
/usr/include/stdlib.h, lines 886-887:	N350 -{char *fcvt(double __value, int __ndigit, int *__decpt, int *__sign);}-> N351
/usr/include/stdlib.h, lines 892-893:	N351 -{char *gcvt(double __value, int __ndigit, char *__buf);}-> N352
/usr/include/stdlib.h, lines 898-900:	N352 -{char *qecvt(long double __value, int __ndigit, int *__decpt, int *__sign);}-> N353
/usr/include/stdlib.h, lines 901-903:	N353 -{char *qfcvt(long double __value, int __ndigit, int *__decpt, int *__sign);}-> N354
/usr/include/stdlib.h, lines 904-905:	N354 -{char *qgcvt(long double __value, int __ndigit, char *__buf);}-> N355
/usr/include/stdlib.h, lines 910-912:	N355 -{int ecvt_r(double __value, int __ndigit, int *__decpt, int *__sign, char *__buf, size_t __len);}-> N356
/usr/include/stdlib.h, lines 913-915:	N356 -{int fcvt_r(double __value, int __ndigit, int *__decpt, int *__sign, char *__buf, size_t __len);}-> N357
/usr/include/stdlib.h, lines 917-920:	N357 -{int qecvt_r(long double __value, int __ndigit, int *__decpt, int *__sign, char *__buf, size_t __len);}-> N358
/usr/include/stdlib.h, lines 921-924:	N358 -{int qfcvt_r(long double __value, int __ndigit, int *__decpt, int *__sign, char *__buf, size_t __len);}-> N359
/usr/include/stdlib.h, line 930:	N359 -{int mblen(const char *__s, size_t __n);}-> N360
/usr/include/stdlib.h, lines 933-934:	N360 -{int mbtowc(wchar_t *__pwc, const char *__s, size_t __n);}-> N361
/usr/include/stdlib.h, line 937:	N361 -{int wctomb(char *__s, wchar_t __wchar);}-> N362
/usr/include/stdlib.h, lines 941-943:	N362 -{size_t mbstowcs(wchar_t *__pwcs, const char *__s, size_t __n);}-> N363
/usr/include/stdlib.h, lines 945-949:	N363 -{size_t wcstombs(char *__s, const wchar_t *__pwcs, size_t __n);}-> N364
/usr/include/stdlib.h, line 956:	N364 -{int rpmatch(const char *__response);}-> N365
/usr/include/stdlib.h, lines 967-970:	N365 -{int getsubopt(char **__optionp, char * const *__tokens, char **__valuep);}-> N366
/usr/include/stdlib.h, lines 1013-1014:	N366 -{int getloadavg(double __loadavg[], int __nelem);}-> N367
line 5:	N367 -{int isEven(int n);}-> N368
line 6:	N368 -{int isOdd(int n);}-> N369
lines 8-10:	N369 -{void assume(int cond);}-> N370
lines 44-64:	N370 -{int main();}-> N371
none:	N371 -{Function start dummy edge}-> N68
line 45:	N68 -{int iVar1;}-> N69
line 46:	N69 -{int mod;}-> N70
	mod == 2;
line 47:	N70 -{int result;}-> N71
line 48:	N71 -{int n;}-> N72
line 50:	N72 -{[!(mod < 0)]}-> N75
	mod == 2;
	mod == 2;
line 54:	N75 -{isEven(mod)}-> N52
none:	N52 -{Function start dummy edge}-> N53
	n == 2;
line 29:	N53 -{int iVar1;}-> N54
	n == 2;
line 30:	N54 -{int n_local;}-> N55
line 32:	N55 -{[!(n == 0)]}-> N58
	n == 2;
	n == 2;
line 35:	N58 -{[!(n == 1)]}-> N62
	n == 2;
	n == 2;
line 39:	N62 -{isOdd(n + -1)}-> N37
none:	N37 -{Function start dummy edge}-> N38
	n == 1;
line 13:	N38 -{int iVar1;}-> N39
	n == 1;
line 14:	N39 -{int n_local;}-> N40
line 16:	N40 -{[!(n == 0)]}-> N43
	n == 1;
	n == 1;
line 19:	N43 -{[n == 1]}-> N46
	n == 1;
	n == 1;
line 20:	N46 -{iVar1 = 1;}-> N48
	iVar1 == 1;
none:	N48 -{}-> N41
line 25:	N41 -{return iVar1;}-> N36
	iVar1 = 1
line 39:	N36 -{Return edge from isOdd to isEven: iVar1 = isOdd(n + -1);}-> N64
none:	N64 -{}-> N56
line 41:	N56 -{return iVar1;}-> N51
	iVar1 = 1
line 54:	N51 -{Return edge from isEven to main: iVar1 = isEven(mod);}-> N77
line 55:	N77 -{[!(iVar1 < 0)]}-> N81
	iVar1 == 1;
	iVar1 == 1;
line 55:	N81 -{[!(iVar1 == (mod % 2))]}-> N80
	iVar1 == 1;
	iVar1 == 1;
mod % 2 == 0
line 59:	N80 -{iVar1 = 1048576;}-> N83
	iVar1 == 1048576;
line 60:	N83 -{int __CPAchecker_TMP_2;}-> N84
line 60:	N84 -{}-> N86
line 60:	N86 -{__CPAchecker_TMP_2 = 0;}-> N88
line 60:	N88 -{4UL;}-> N89
line 60:	N89 -{}-> N92
line 60:	N92 -{__assert_fail("0 && \"Assertion failed: iVar1 should not be 0x100000\"", "/home/zyl/biVerify/CPA_DATA2/C/F/llmfix/realOutput/iterationTry/EvenOdd03_process_dc_iter1.c", 60, "__PRETTY_FUNCTION__");}-> N373
